40
1 0 14
2 0 1
2 1 9
3 0 7
3 1 3
3 2 3
4 0 1
4 1 8
4 2 6
4 3 10
5 0 6
5 1 9
5 2 12
5 3 13
5 4 5
6 0 7
6 1 2
6 2 4
6 3 2
6 4 12
6 5 2
7 0 5
7 1 11
7 2 5
7 3 7
7 4 10
7 5 10
7 6 9
8 0 6
8 1 12
8 2 4
8 3 11
8 4 2
8 5 4
8 6 8
8 7 9
9 0 8
9 1 5
9 2 13
9 3 6
9 4 6
9 5 11
9 6 9
9 7 3
9 8 2
10 0 2
10 1 11
10 2 1
10 3 4
10 4 10
10 5 7
10 6 6
10 7 10
10 8 7
10 9 8
11 0 8
11 1 2
11 2 4
11 3 4
11 4 3
11 5 6
11 6 6
11 7 12
11 8 3
11 9 14
11 10 11
12 0 7
12 1 9
12 2 1
12 3 9
12 4 8
12 5 12
12 6 11
12 7 7
12 8 7
12 9 13
12 10 3
12 11 9
13 0 8
13 1 13
13 2 6
13 3 13
13 4 12
13 5 7
13 6 7
13 7 2
13 8 14
13 9 13
13 10 2
13 11 14
13 12 3
14 0 10
14 1 6
14 2 12
14 3 13
14 4 6
14 5 9
14 6 13
14 7 9
14 8 6
14 9 10
14 10 5
14 11 1
14 12 7
14 13 7
15 0 6
15 1 13
15 2 13
15 3 8
15 4 14
15 5 7
15 6 1
15 7 14
15 8 11
15 9 9
15 10 9
15 11 14
15 12 9
15 13 3
15 14 4
16 0 9
16 1 13
16 2 12
16 3 5
16 4 4
16 5 1
16 6 14
16 7 8
16 8 10
16 9 5
16 10 9
16 11 14
16 12 13
16 13 11
16 14 4
16 15 6
17 0 11
17 1 6
17 2 12
17 3 6
17 4 9
17 5 3
17 6 3
17 7 13
17 8 10
17 9 14
17 10 1
17 11 2
17 12 9
17 13 2
17 14 3
17 15 7
17 16 7
18 0 13
18 1 10
18 2 2
18 3 5
18 4 14
18 5 3
18 6 4
18 7 11
18 8 7
18 9 14
18 10 7
18 11 4
18 12 11
18 13 12
18 14 5
18 15 13
18 16 13
18 17 5
19 0 12
19 1 1
19 2 5
19 3 1
19 4 10
19 5 10
19 6 2
19 7 12
19 8 4
19 9 10
19 10 3
19 11 12
19 12 12
19 13 3
19 14 7
19 15 10
19 16 7
19 17 10
19 18 8
20 0 13
20 1 11
20 2 5
20 3 3
20 4 2
20 5 3
20 6 3
20 7 10
20 8 5
20 9 7
20 10 6
20 11 13
20 12 1
20 13 1
20 14 11
20 15 1
20 16 9
20 17 5
20 18 12
20 19 11
21 0 13
21 1 5
21 2 10
21 3 10
21 4 2
21 5 2
21 6 3
21 7 5
21 8 3
21 9 8
21 10 6
21 11 5
21 12 6
21 13 12
21 14 5
21 15 7
21 16 5
21 17 11
21 18 7
21 19 9
21 20 11
22 0 1
22 1 5
22 2 4
22 3 3
22 4 7
22 5 3
22 6 9
22 7 9
22 8 1
22 9 9
22 10 11
22 11 4
22 12 13
22 13 6
22 14 1
22 15 5
22 16 12
22 17 14
22 18 2
22 19 3
22 20 5
22 21 9
23 0 1
23 1 5
23 2 3
23 3 10
23 4 3
23 5 5
23 6 8
23 7 1
23 8 7
23 9 3
23 10 5
23 11 6
23 12 8
23 13 8
23 14 3
23 15 7
23 16 1
23 17 3
23 18 14
23 19 8
23 20 5
23 21 2
23 22 11
24 0 14
24 1 5
24 2 1
24 3 3
24 4 3
24 5 12
24 6 7
24 7 1
24 8 10
24 9 2
24 10 11
24 11 7
24 12 2
24 13 8
24 14 13
24 15 6
24 16 11
24 17 4
24 18 5
24 19 8
24 20 2
24 21 13
24 22 1
24 23 3
25 0 7
25 1 5
25 2 14
25 3 9
25 4 1
25 5 2
25 6 2
25 7 7
25 8 2
25 9 9
25 10 9
25 11 9
25 12 12
25 13 11
25 14 12
25 15 13
25 16 6
25 17 11
25 18 7
25 19 7
25 20 12
25 21 12
25 22 8
25 23 3
25 24 8
26 0 2
26 1 8
26 2 5
26 3 11
26 4 4
26 5 7
26 6 7
26 7 1
26 8 9
26 9 3
26 10 1
26 11 14
26 12 9
26 13 7
26 14 14
26 15 7
26 16 11
26 17 14
26 18 5
26 19 8
26 20 3
26 21 4
26 22 8
26 23 13
26 24 2
26 25 13
27 0 6
27 1 12
27 2 4
27 3 4
27 4 10
27 5 11
27 6 7
27 7 14
27 8 13
27 9 13
27 10 4
27 11 11
27 12 4
27 13 2
27 14 1
27 15 3
27 16 14
27 17 6
27 18 14
27 19 3
27 20 6
27 21 6
27 22 1
27 23 13
27 24 5
27 25 8
27 26 9
28 0 12
28 1 2
28 2 3
28 3 5
28 4 8
28 5 12
28 6 3
28 7 5
28 8 2
28 9 1
28 10 4
28 11 6
28 12 10
28 13 14
28 14 4
28 15 14
28 16 6
28 17 1
28 18 14
28 19 9
28 20 14
28 21 11
28 22 14
28 23 7
28 24 2
28 25 9
28 26 5
28 27 13
29 0 5
29 1 10
29 2 12
29 3 12
29 4 4
29 5 8
29 6 1
29 7 13
29 8 11
29 9 1
29 10 1
29 11 9
29 12 12
29 13 7
29 14 6
29 15 7
29 16 13
29 17 1
29 18 1
29 19 5
29 20 4
29 21 12
29 22 5
29 23 7
29 24 1
29 25 13
29 26 3
29 27 6
29 28 4
30 0 12
30 1 2
30 2 5
30 3 5
30 4 3
30 5 7
30 6 8
30 7 10
30 8 3
30 9 6
30 10 9
30 11 5
30 12 13
30 13 11
30 14 6
30 15 8
30 16 12
30 17 7
30 18 2
30 19 2
30 20 11
30 21 13
30 22 14
30 23 13
30 24 5
30 25 4
30 26 10
30 27 13
30 28 12
30 29 3
31 0 8
31 1 9
31 2 5
31 3 10
31 4 11
31 5 6
31 6 6
31 7 9
31 8 11
31 9 2
31 10 14
31 11 2
31 12 14
31 13 5
31 14 7
31 15 4
31 16 6
31 17 6
31 18 7
31 19 10
31 20 12
31 21 4
31 22 8
31 23 6
31 24 13
31 25 10
31 26 14
31 27 14
31 28 2
31 29 10
31 30 6
32 0 4
32 1 13
32 2 11
32 3 2
32 4 10
32 5 12
32 6 5
32 7 13
32 8 13
32 9 9
32 10 6
32 11 7
32 12 7
32 13 12
32 14 7
32 15 10
32 16 13
32 17 5
32 18 4
32 19 12
32 20 5
32 21 1
32 22 11
32 23 5
32 24 10
32 25 13
32 26 1
32 27 4
32 28 3
32 29 11
32 30 3
32 31 10
33 0 11
33 1 6
33 2 10
33 3 10
33 4 7
33 5 9
33 6 13
33 7 3
33 8 1
33 9 3
33 10 6
33 11 11
33 12 4
33 13 6
33 14 1
33 15 14
33 16 12
33 17 9
33 18 6
33 19 14
33 20 13
33 21 10
33 22 13
33 23 4
33 24 4
33 25 8
33 26 6
33 27 10
33 28 13
33 29 10
33 30 12
33 31 9
33 32 6
34 0 5
34 1 2
34 2 6
34 3 1
34 4 10
34 5 6
34 6 4
34 7 12
34 8 12
34 9 4
34 10 5
34 11 14
34 12 8
34 13 4
34 14 12
34 15 3
34 16 2
34 17 13
34 18 5
34 19 8
34 20 11
34 21 13
34 22 4
34 23 8
34 24 7
34 25 8
34 26 2
34 27 3
34 28 8
34 29 3
34 30 7
34 31 7
34 32 6
34 33 7
35 0 6
35 1 10
35 2 11
35 3 4
35 4 2
35 5 6
35 6 14
35 7 8
35 8 4
35 9 9
35 10 6
35 11 6
35 12 9
35 13 2
35 14 7
35 15 11
35 16 5
35 17 10
35 18 5
35 19 12
35 20 12
35 21 8
35 22 6
35 23 12
35 24 10
35 25 10
35 26 1
35 27 10
35 28 13
35 29 12
35 30 13
35 31 6
35 32 3
35 33 8
35 34 13
36 0 1
36 1 10
36 2 1
36 3 1
36 4 4
36 5 5
36 6 7
36 7 6
36 8 13
36 9 3
36 10 12
36 11 5
36 12 1
36 13 3
36 14 10
36 15 12
36 16 3
36 17 6
36 18 8
36 19 9
36 20 14
36 21 6
36 22 6
36 23 1
36 24 4
36 25 3
36 26 14
36 27 11
36 28 6
36 29 3
36 30 5
36 31 12
36 32 8
36 33 6
36 34 2
36 35 8
37 0 1
37 1 6
37 2 10
37 3 9
37 4 5
37 5 7
37 6 3
37 7 4
37 8 14
37 9 6
37 10 10
37 11 12
37 12 10
37 13 6
37 14 9
37 15 8
37 16 10
37 17 11
37 18 14
37 19 13
37 20 14
37 21 14
37 22 9
37 23 1
37 24 8
37 25 7
37 26 14
37 27 13
37 28 1
37 29 9
37 30 3
37 31 4
37 32 8
37 33 4
37 34 12
37 35 8
37 36 2
38 0 3
38 1 6
38 2 1
38 3 5
38 4 4
38 5 13
38 6 10
38 7 10
38 8 8
38 9 10
38 10 9
38 11 7
38 12 5
38 13 14
38 14 1
38 15 9
38 16 4
38 17 5
38 18 9
38 19 3
38 20 9
38 21 4
38 22 7
38 23 6
38 24 10
38 25 2
38 26 9
38 27 4
38 28 14
38 29 9
38 30 10
38 31 14
38 32 8
38 33 4
38 34 3
38 35 4
38 36 14
38 37 12
39 0 5
39 1 2
39 2 11
39 3 8
39 4 9
39 5 13
39 6 7
39 7 13
39 8 14
39 9 11
39 10 8
39 11 2
39 12 11
39 13 6
39 14 13
39 15 9
39 16 13
39 17 4
39 18 3
39 19 8
39 20 7
39 21 13
39 22 13
39 23 10
39 24 5
39 25 8
39 26 11
39 27 10
39 28 3
39 29 8
39 30 13
39 31 4
39 32 10
39 33 12
39 34 10
39 35 2
39 36 12
39 37 13
39 38 3
